NAME : fra1488
COMMENT : Bonn VLSI data set with 1488 points
COMMENT : Uni Bonn, Research Institute for Discrete Math
COMMENT : Contributed by Andre Rohe
TYPE : TSP
DIMENSION : 1488
EDGE_WEIGHT_TYPE : EUC_2D
NODE_COORD_SECTION
1 0 18
2 0 19
3 0 2
4 0 20
5 0 21
6 0 22
7 0 23
8 0 24
9 0 25
10 0 26
11 0 27
12 0 28
13 0 29
14 0 3
15 0 30
16 0 31
17 0 32
18 0 33
19 0 34
20 0 35
21 0 36
22 0 37
23 0 38
24 0 39
25 0 4
26 0 40
27 0 41
28 0 42
29 0 43
30 0 44
31 0 45
32 0 46
33 0 47
34 0 48
35 0 49
36 0 5
37 0 50
38 0 51
39 0 52
40 0 53
41 0 54
42 0 55
43 0 56
44 0 57
45 0 58
46 0 59
47 0 60
48 0 61
49 0 62
50 0 63
51 0 64
52 0 65
53 0 66
54 0 67
55 0 68
56 0 69
57 0 70
58 0 71
59 0 72
60 0 73
61 0 74
62 0 75
63 0 76
64 0 77
65 0 78
66 0 79
67 0 80
68 0 81
69 0 82
70 0 83
71 0 84
72 0 85
73 0 86
74 0 87
75 0 88
76 2 12
77 2 13
78 2 14
79 2 18
80 2 20
81 2 23
82 2 25
83 2 28
84 2 32
85 2 39
86 2 41
87 2 44
88 2 45
89 2 47
90 2 49
91 2 51
92 2 60
93 2 62
94 2 64
95 2 66
96 2 70
97 2 72
98 2 75
99 2 78
100 2 81
101 5 19
102 5 24
103 5 28
104 5 30
105 5 40
106 5 44
107 5 46
108 5 49
109 5 60
110 5 62
111 5 64
112 5 66
113 5 68
114 5 71
115 5 75
116 5 77
117 5 79
118 5 8
119 5 85
120 9 17
121 9 22
122 9 38
123 9 47
124 9 69
125 9 90
126 10 17
127 10 22
128 10 27
129 10 31
130 10 38
131 10 45
132 10 47
133 10 50
134 10 59
135 10 69
136 10 74
137 10 78
138 11 13
139 11 17
140 11 22
141 11 27
142 11 31
143 11 38
144 11 45
145 11 47
146 11 50
147 11 59
148 11 69
149 11 74
150 11 78
151 11 83
152 12 5
153 15 28
154 15 30
155 15 46
156 15 60
157 15 62
158 15 64
159 15 66
160 15 68
161 15 75
162 15 77
163 15 79
164 15 8
165 16 32
166 17 81
167 18 14
168 25 11
169 25 13
170 25 15
171 25 17
172 25 20
173 25 21
174 25 22
175 25 24
176 25 26
177 25 28
178 25 31
179 25 34
180 25 38
181 25 47
182 25 55
183 25 57
184 25 59
185 25 62
186 25 65
187 25 67
188 25 69
189 25 72
190 25 75
191 25 77
192 25 80
193 26 90
194 28 12
195 28 16
196 28 20
197 28 26
198 28 28
199 28 30
200 28 32
201 28 34
202 28 36
203 28 57
204 28 59
205 28 6
206 28 62
207 28 64
208 28 67
209 28 69
210 28 71
211 28 73
212 28 76
213 28 8
214 28 80
215 28 82
216 32 10
217 32 24
218 32 55
219 32 65
220 32 74
221 33 10
222 33 24
223 33 27
224 33 31
225 33 33
226 33 37
227 33 46
228 33 55
229 33 58
230 33 61
231 33 65
232 33 68
233 33 72
234 33 74
235 34 10
236 34 24
237 34 27
238 34 31
239 34 33
240 34 37
241 34 46
242 34 5
243 34 55
244 34 58
245 34 61
246 34 65
247 34 68
248 34 72
249 34 74
250 34 81
251 38 28
252 38 30
253 38 32
254 38 34
255 38 36
256 38 59
257 38 6
258 38 62
259 38 64
260 38 69
261 38 71
262 38 73
263 38 8
264 38 82
265 40 22
266 45 90
267 48 13
268 48 15
269 48 17
270 48 19
271 48 22
272 48 24
273 48 26
274 48 28
275 48 30
276 48 32
277 48 34
278 48 36
279 48 39
280 48 46
281 48 50
282 48 53
283 48 57
284 48 61
285 48 63
286 48 66
287 48 68
288 48 70
289 48 73
290 48 75
291 48 78
292 51 11
293 51 14
294 51 18
295 51 22
296 51 24
297 51 27
298 51 29
299 51 32
300 51 35
301 51 46
302 51 48
303 51 50
304 51 52
305 51 54
306 51 57
307 51 59
308 51 62
309 51 67
310 51 7
311 51 71
312 51 74
313 51 78
314 51 80
315 51 84
316 55 12
317 55 30
318 55 33
319 55 60
320 55 65
321 55 72
322 56 12
323 56 23
324 56 26
325 56 28
326 56 30
327 56 33
328 56 38
329 56 45
330 56 49
331 56 53
332 56 56
333 56 60
334 56 65
335 56 70
336 56 72
337 56 77
338 57 12
339 57 23
340 57 26
341 57 28
342 57 30
343 57 33
344 57 38
345 57 45
346 57 49
347 57 5
348 57 53
349 57 56
350 57 60
351 57 65
352 57 70
353 57 72
354 57 77
355 58 8
356 58 81
357 61 11
358 61 24
359 61 27
360 61 29
361 61 46
362 61 48
363 61 50
364 61 52
365 61 54
366 61 57
367 61 59
368 61 71
369 61 78
370 61 80
371 61 84
372 62 0
373 62 39
374 62 90
375 71 11
376 71 22
377 71 24
378 71 27
379 71 29
380 71 47
381 71 60
382 71 65
383 71 68
384 71 78
385 74 28
386 74 35
387 74 43
388 74 60
389 74 62
390 74 65
391 74 67
392 74 69
393 74 7
394 74 73
395 74 78
396 74 80
397 74 84
398 77 31
399 77 37
400 78 26
401 78 31
402 78 37
403 78 70
404 79 10
405 79 26
406 79 31
407 79 37
408 79 44
409 79 59
410 79 64
411 79 68
412 79 70
413 79 77
414 80 10
415 80 26
416 80 31
417 80 38
418 80 44
419 80 5
420 80 59
421 80 64
422 80 68
423 80 70
424 80 77
425 81 0
426 81 31
427 81 70
428 81 81
429 81 90
430 84 60
431 84 62
432 84 65
433 84 67
434 84 69
435 84 73
436 84 78
437 84 80
438 84 84
439 86 22
440 86 24
441 87 32
442 87 33
443 87 35
444 87 37
445 87 41
446 87 42
447 87 71
448 87 72
449 87 74
450 87 75
451 94 12
452 94 14
453 94 17
454 94 20
455 94 23
456 94 27
457 94 29
458 94 32
459 94 34
460 94 37
461 94 39
462 94 41
463 94 45
464 94 47
465 94 56
466 94 58
467 94 6
468 94 60
469 94 62
470 94 67
471 94 69
472 94 71
473 94 73
474 94 75
475 94 77
476 94 80
477 97 10
478 97 12
479 97 14
480 97 17
481 97 19
482 97 21
483 97 23
484 97 25
485 97 28
486 97 33
487 97 37
488 97 40
489 97 46
490 97 52
491 97 58
492 97 61
493 97 68
494 97 72
495 97 76
496 97 80
497 97 84
498 98 90
499 101 26
500 101 31
501 101 38
502 101 44
503 101 49
504 101 56
505 101 59
506 101 66
507 102 11
508 102 16
509 102 20
510 102 22
511 102 26
512 102 31
513 102 38
514 102 44
515 102 49
516 102 56
517 102 59
518 102 66
519 103 11
520 103 16
521 103 20
522 103 22
523 103 26
524 103 31
525 103 38
526 103 44
527 103 49
528 103 56
529 103 59
530 103 66
531 103 8
532 104 49
533 104 81
534 107 12
535 107 14
536 107 17
537 107 19
538 107 21
539 107 23
540 107 25
541 107 52
542 107 84
543 109 6
544 110 50
545 110 52
546 110 53
547 110 54
548 117 11
549 117 16
550 117 20
551 117 23
552 117 25
553 117 27
554 117 37
555 117 38
556 117 39
557 117 46
558 117 48
559 117 51
560 117 53
561 117 55
562 117 57
563 117 60
564 117 62
565 117 64
566 117 66
567 117 68
568 117 70
569 117 73
570 117 75
571 117 77
572 117 90
573 120 11
574 120 13
575 120 16
576 120 18
577 120 20
578 120 24
579 120 28
580 120 32
581 120 47
582 120 51
583 120 54
584 120 58
585 120 61
586 120 65
587 120 69
588 120 7
589 120 73
590 120 75
591 120 78
592 120 81
593 120 85
594 124 22
595 124 29
596 124 36
597 124 45
598 124 52
599 124 59
600 125 10
601 125 15
602 125 19
603 125 22
604 125 27
605 125 29
606 125 45
607 125 52
608 125 57
609 125 59
610 125 74
611 125 77
612 126 10
613 126 15
614 126 19
615 126 22
616 126 27
617 126 29
618 126 40
619 126 45
620 126 5
621 126 52
622 126 57
623 126 59
624 126 74
625 126 77
626 126 79
627 127 29
628 127 82
629 130 11
630 130 13
631 130 16
632 130 18
633 130 20
634 130 28
635 130 32
636 130 58
637 130 75
638 130 78
639 130 85
640 133 30
641 133 32
642 133 33
643 133 34
644 134 90
645 140 11
646 140 14
647 140 17
648 140 20
649 140 22
650 140 24
651 140 26
652 140 28
653 140 30
654 140 32
655 140 33
656 140 35
657 140 37
658 140 39
659 140 42
660 140 43
661 140 47
662 140 49
663 140 59
664 140 61
665 140 64
666 140 66
667 140 69
668 140 77
669 140 79
670 140 9
671 143 12
672 143 14
673 143 17
674 143 20
675 143 24
676 143 27
677 143 32
678 143 35
679 143 38
680 143 42
681 143 44
682 143 48
683 143 54
684 143 6
685 143 60
686 143 65
687 143 78
688 143 84
689 147 22
690 147 25
691 147 30
692 147 33
693 147 36
694 147 46
695 147 51
696 147 58
697 147 63
698 147 76
699 148 11
700 148 13
701 148 16
702 148 19
703 148 22
704 148 25
705 148 30
706 148 33
707 148 36
708 148 43
709 148 46
710 148 51
711 148 58
712 148 63
713 148 68
714 148 76
715 149 11
716 149 13
717 149 16
718 149 19
719 149 22
720 149 25
721 149 30
722 149 33
723 149 36
724 149 43
725 149 46
726 149 5
727 149 51
728 149 58
729 149 63
730 149 68
731 149 76
732 150 51
733 150 81
734 153 0
735 153 12
736 153 14
737 153 17
738 153 20
739 153 44
740 153 54
741 153 6
742 153 84
743 153 90
744 154 69
745 155 9
746 156 0
747 156 52
748 156 54
749 156 55
750 156 56
751 157 0
752 158 0
753 159 0
754 160 0
755 161 0
756 162 0
757 163 10
758 163 13
759 163 16
760 163 20
761 163 23
762 163 25
763 163 27
764 163 29
765 163 34
766 163 37
767 163 41
768 163 43
769 163 45
770 163 47
771 163 49
772 163 51
773 163 52
774 163 53
775 163 62
776 163 65
777 163 69
778 163 73
779 163 76
780 163 78
781 166 11
782 166 13
783 166 16
784 166 18
785 166 20
786 166 23
787 166 25
788 166 27
789 166 32
790 166 34
791 166 41
792 166 43
793 166 45
794 166 49
795 166 58
796 166 63
797 166 65
798 166 67
799 166 69
800 166 7
801 166 71
802 166 73
803 166 76
804 166 78
805 166 80
806 166 82
807 166 84
808 170 0
809 170 29
810 170 47
811 170 55
812 170 90
813 171 10
814 171 12
815 171 15
816 171 19
817 171 22
818 171 29
819 171 33
820 171 40
821 171 47
822 171 55
823 171 62
824 171 64
825 171 68
826 171 72
827 171 75
828 172 10
829 172 12
830 172 15
831 172 19
832 172 22
833 172 29
834 172 33
835 172 40
836 172 47
837 172 5
838 172 55
839 172 62
840 172 64
841 172 68
842 172 72
843 172 75
844 172 81
845 173 29
846 173 55
847 176 11
848 176 13
849 176 16
850 176 18
851 176 20
852 176 23
853 176 25
854 176 27
855 176 32
856 176 34
857 176 41
858 176 43
859 176 45
860 176 58
861 176 63
862 176 65
863 176 67
864 176 69
865 176 71
866 176 73
867 176 76
868 176 78
869 176 80
870 176 82
871 176 84
872 178 37
873 178 51
874 178 52
875 178 53
876 179 30
877 179 31
878 179 56
879 179 58
880 179 59
881 179 60
882 186 18
883 186 20
884 186 22
885 186 24
886 186 25
887 186 26
888 186 29
889 186 31
890 186 33
891 186 35
892 186 37
893 186 39
894 186 41
895 186 43
896 186 46
897 186 48
898 186 51
899 186 77
900 186 78
901 186 79
902 189 14
903 189 20
904 189 27
905 189 30
906 189 34
907 189 38
908 189 42
909 189 47
910 189 51
911 189 55
912 189 63
913 189 7
914 189 71
915 189 82
916 189 84
917 189 9
918 189 90
919 192 24
920 192 59
921 192 65
922 192 73
923 193 0
924 193 11
925 193 18
926 193 24
927 193 28
928 193 45
929 193 52
930 193 59
931 193 65
932 193 73
933 194 11
934 194 18
935 194 24
936 194 28
937 194 45
938 194 52
939 194 59
940 194 65
941 194 73
942 195 11
943 195 18
944 195 24
945 195 28
946 195 45
947 195 5
948 195 52
949 195 59
950 195 66
951 195 74
952 195 8
953 195 81
954 196 11
955 196 52
956 196 59
957 199 14
958 199 27
959 199 55
960 199 82
961 199 84
962 199 9
963 201 22
964 201 77
965 202 12
966 202 14
967 202 15
968 202 16
969 202 53
970 202 55
971 202 56
972 202 57
973 202 60
974 202 61
975 202 63
976 202 64
977 202 65
978 202 68
979 202 69
980 202 71
981 202 72
982 202 73
983 202 78
984 206 90
985 209 12
986 209 14
987 209 16
988 209 18
989 209 20
990 209 30
991 209 32
992 209 34
993 209 36
994 209 38
995 209 39
996 209 41
997 209 42
998 209 43
999 209 53
1000 209 55
1001 209 57
1002 209 59
1003 209 61
1004 209 63
1005 209 66
1006 209 67
1007 209 68
1008 209 72
1009 209 74
1010 209 77
1011 209 83
1012 212 12
1013 212 14
1014 212 17
1015 212 19
1016 212 21
1017 212 25
1018 212 31
1019 212 35
1020 212 38
1021 212 48
1022 212 54
1023 212 59
1024 212 62
1025 212 7
1026 212 73
1027 212 77
1028 212 80
1029 212 9
1030 216 22
1031 216 29
1032 216 36
1033 216 41
1034 216 45
1035 216 52
1036 216 57
1037 216 60
1038 216 71
1039 217 11
1040 217 16
1041 217 18
1042 217 20
1043 217 22
1044 217 29
1045 217 34
1046 217 36
1047 217 45
1048 217 52
1049 217 57
1050 217 60
1051 217 71
1052 217 76
1053 218 11
1054 218 16
1055 218 18
1056 218 20
1057 218 22
1058 218 29
1059 218 34
1060 218 36
1061 218 40
1062 218 45
1063 218 5
1064 218 52
1065 218 57
1066 218 60
1067 218 67
1068 218 71
1069 218 76
1070 218 79
1071 218 8
1072 219 22
1073 219 45
1074 222 12
1075 222 14
1076 222 17
1077 222 19
1078 222 21
1079 222 25
1080 222 35
1081 222 43
1082 222 48
1083 222 77
1084 222 80
1085 222 9
1086 224 0
1087 224 83
1088 225 23
1089 225 24
1090 225 26
1091 225 27
1092 225 46
1093 225 48
1094 225 49
1095 225 50
1096 225 68
1097 225 90
1098 232 12
1099 232 13
1100 232 14
1101 232 42
1102 232 43
1103 232 46
1104 232 47
1105 232 48
1106 232 49
1107 232 53
1108 232 55
1109 232 58
1110 232 60
1111 232 62
1112 232 64
1113 235 21
1114 235 29
1115 235 37
1116 235 54
1117 235 58
1118 235 61
1119 235 67
1120 235 72
1121 235 8
1122 235 80
1123 235 83
1124 238 17
1125 238 23
1126 238 31
1127 238 68
1128 238 74
1129 239 17
1130 239 23
1131 239 31
1132 239 34
1133 239 52
1134 239 59
1135 239 64
1136 239 68
1137 239 74
1138 240 17
1139 240 23
1140 240 31
1141 240 34
1142 240 52
1143 240 59
1144 240 64
1145 240 68
1146 240 74
1147 241 13
1148 241 17
1149 241 24
1150 241 32
1151 241 34
1152 241 52
1153 241 59
1154 241 64
1155 241 68
1156 241 75
1157 241 81
1158 242 0
1159 242 17
1160 242 34
1161 242 5
1162 242 64
1163 242 68
1164 242 90
1165 245 37
1166 245 67
1167 245 8
1168 247 42
1169 247 43
1170 248 14
1171 248 18
1172 248 19
1173 248 21
1174 248 22
1175 248 23
1176 248 26
1177 248 27
1178 248 29
1179 248 30
1180 248 31
1181 248 35
1182 248 37
1183 248 38
1184 248 39
1185 248 46
1186 248 48
1187 248 49
1188 248 65
1189 248 66
1190 248 69
1191 248 70
1192 248 72
1193 248 73
1194 248 74
1195 248 77
1196 248 78
1197 248 79
1198 255 11
1199 255 12
1200 255 16
1201 255 18
1202 255 21
1203 255 35
1204 255 37
1205 255 40
1206 255 42
1207 255 45
1208 255 46
1209 255 47
1210 255 48
1211 255 59
1212 255 61
1213 255 64
1214 255 66
1215 255 69
1216 255 71
1217 255 9
1218 258 17
1219 258 30
1220 258 36
1221 258 41
1222 258 54
1223 258 6
1224 258 60
1225 258 65
1226 258 70
1227 258 76
1228 258 83
1229 260 0
1230 261 0
1231 261 90
1232 262 15
1233 262 27
1234 262 34
1235 262 39
1236 262 51
1237 262 58
1238 262 63
1239 262 68
1240 262 73
1241 263 15
1242 263 20
1243 263 27
1244 263 34
1245 263 39
1246 263 51
1247 263 58
1248 263 63
1249 263 68
1250 263 73
1251 264 15
1252 264 20
1253 264 27
1254 264 34
1255 264 39
1256 264 5
1257 264 51
1258 264 58
1259 264 63
1260 264 68
1261 264 73
1262 265 27
1263 265 51
1264 265 73
1265 265 80
1266 268 30
1267 268 54
1268 268 6
1269 268 76
1270 268 83
1271 269 21
1272 270 12
1273 270 9
1274 271 28
1275 271 30
1276 271 31
1277 271 32
1278 271 45
1279 271 47
1280 271 48
1281 271 52
1282 271 54
1283 271 55
1284 271 56
1285 271 74
1286 271 76
1287 271 77
1288 271 78
1289 278 12
1290 278 15
1291 278 17
1292 278 20
1293 278 29
1294 278 36
1295 278 38
1296 278 40
1297 278 42
1298 278 45
1299 278 47
1300 278 49
1301 278 51
1302 278 53
1303 278 56
1304 278 58
1305 278 6
1306 278 60
1307 278 62
1308 278 64
1309 278 67
1310 278 68
1311 278 79
1312 278 90
1313 281 10
1314 281 12
1315 281 16
1316 281 20
1317 281 24
1318 281 37
1319 281 41
1320 281 45
1321 281 48
1322 281 52
1323 281 56
1324 281 59
1325 281 63
1326 281 67
1327 281 71
1328 281 75
1329 281 80
1330 281 82
1331 281 84
1332 285 14
1333 285 21
1334 285 35
1335 285 46
1336 285 57
1337 285 68
1338 285 72
1339 286 11
1340 286 14
1341 286 21
1342 286 28
1343 286 35
1344 286 46
1345 286 57
1346 286 68
1347 286 72
1348 286 79
1349 287 11
1350 287 14
1351 287 21
1352 287 28
1353 287 35
1354 287 46
1355 287 57
1356 287 68
1357 287 72
1358 287 79
1359 287 8
1360 287 81
1361 288 21
1362 288 68
1363 288 72
1364 291 0
1365 291 12
1366 291 24
1367 291 71
1368 291 75
1369 291 80
1370 291 82
1371 291 84
1372 292 29
1373 293 6
1374 294 22
1375 294 24
1376 294 25
1377 294 26
1378 294 69
1379 294 70
1380 294 73
1381 294 75
1382 294 76
1383 294 77
1384 301 10
1385 301 13
1386 301 15
1387 301 18
1388 301 20
1389 301 23
1390 301 27
1391 301 29
1392 301 31
1393 301 33
1394 301 35
1395 301 37
1396 301 39
1397 301 41
1398 301 44
1399 301 46
1400 301 47
1401 301 48
1402 301 52
1403 301 54
1404 301 56
1405 301 58
1406 301 66
1407 301 68
1408 301 69
1409 301 70
1410 301 71
1411 301 72
1412 301 75
1413 301 77
1414 301 79
1415 304 11
1416 304 14
1417 304 19
1418 304 23
1419 304 28
1420 304 33
1421 304 36
1422 304 40
1423 304 44
1424 304 53
1425 304 58
1426 304 6
1427 304 62
1428 304 68
1429 304 76
1430 304 80
1431 304 84
1432 308 12
1433 308 17
1434 308 26
1435 308 31
1436 308 34
1437 308 51
1438 308 56
1439 308 59
1440 308 66
1441 308 74
1442 309 10
1443 309 12
1444 309 17
1445 309 22
1446 309 26
1447 309 31
1448 309 34
1449 309 51
1450 309 56
1451 309 59
1452 309 66
1453 309 74
1454 309 79
1455 310 10
1456 310 12
1457 310 17
1458 310 22
1459 310 26
1460 310 31
1461 310 34
1462 310 47
1463 310 5
1464 310 51
1465 310 56
1466 310 59
1467 310 66
1468 310 74
1469 310 79
1470 311 59
1471 311 81
1472 314 11
1473 314 23
1474 314 6
1475 314 62
1476 314 80
1477 314 84
1478 316 70
1479 316 71
1480 316 72
1481 317 48
1482 317 60
1483 317 62
1484 317 63
1485 317 64
1486 323 2
1487 323 31
1488 323 60
EOF
